coords = array2d(1..61, 1..2, [97, 376, 19, 364, 66, 57, 641, 434, 709, 616,
    26, 452, 301, 939, 901, 432, 774, 352, 793, 730, 973, 12, 74, 386,
    69, 295, 704, 591, 975, 747, 943, 796, 509, 538, 785, 771, 377,
    820, 791, 125, 818, 680, 832, 108, 547, 623, 886, 480, 570, 261,
    697, 165, 572, 687, 81, 707, 972, 773, 413, 441, 976, 476, 667,
    809, 782, 287, 504, 669, 839, 488, 258, 136, 385, 515, 391, 503,
    289, 379, 147, 908, 48, 844, 785, 765, 239, 310, 71, 182, 98, 316,
    515, 281, 36, 485, 245, 185, 553, 575, 634, 724, 351, 830, 912,
    46, 610, 265, 609, 165, 790, 735, 36, 205, 46, 374, 633, 672, 768,
    951, 220, 58, 322, 124]);

n = 61;

